3 
4  45 56 
5  07 26 34 42 51 
6  01 09 17 24 32 39 47 54 
7  02 09 17 24 32 39 47 54 
8  02 09 17 24 32 39 47 54 
9  01 09 16 24 31 39 46 54 
10  01 09 16 24 31 39 46 54 
11  01 09 16 24 31 39 46 54 
12  01 09 16 24 31 39 46 54 
13  01 09 16 24 31 39 46 54 
14  01 09 16 24 31 39 46 54 
15  01 09 16 24 31 39 46 54 
16  01 09 16 24 31 39 46 54 
17  01 09 16 24 31 39 46 54 
18  01 09 16 24 31 39 46 54 
19  01 09 16 24 31 39 46 54 
20  03 18 33 48 
21  03 18 33 47 
22  02 18 33 47 
23 
